proyfinal/src/viki/013/andrea/andrea-localstore/experimentInOfficeAgust.take6/worker_10/f1a52db6-3526-4643-a203-0cb1f53d676b.als.cnf.out
Reading from standard input... Use '--help' for help.
============================[ Problem Statistics ]=============================
|                                                                             |
|  Number of variables:         87638                                         |
|  Number of clauses:          161767                                         |
|  Parse time:                   0.03 s                                       |
|                                                                             |
============================[ Search Statistics ]==============================
| Conflicts |          ORIGINAL         |          LEARNT          | Progress |
|           |    Vars  Clauses Literals |    Limit  Clauses Lit/Cl |          |
===============================================================================
|       100 |   65125   115237   287187 |    42253      100     11 | 25.689 % |
|       250 |   65125   115237   287187 |    46478      250     15 | 25.689 % |
|       475 |   65125   115237   287187 |    51126      475     33 | 25.689 % |
|       812 |   65124   115193   287097 |    56239      808     52 | 25.690 % |
|      1318 |   65124   115193   287097 |    61863     1314     78 | 25.690 % |
|      2077 |   65124   115193   287097 |    68049     2073     90 | 25.690 % |
|      3216 |   65124   115193   287097 |    74854     3212     76 | 25.690 % |
|      4924 |   65104   115112   286909 |    82340     4843     83 | 25.713 % |
|      7486 |   65104   115112   286909 |    90574     7405     78 | 25.713 % |
|     11330 |   65060   114895   286426 |    99631    10935     82 | 25.763 % |
|     17096 |   59725    96282   240756 |   109594    14604     83 | 31.850 % |
===============================================================================
restarts              : 63
conflicts             : 17523          (6996 /sec)
decisions             : 78660          (0.00 % random) (31407 /sec)
propagations          : 27434313       (10953754 /sec)
conflict literals     : 1507744        (42.73 % deleted)
Memory used           : 41.62 MB
CPU time              : 2.50456 s

INDETERMINATE
